
  12    4
  10   10   10   10

   0   0   0   0   0   2 2 3 
  10  10  10  10  10   2 5 4 
   4  10  10  10  10   3 9 7 5 
   1  10  10  10  10   3 9 7 6 
   5  10  10  10  10   1 6 
   6  10  10  10  10   1 8 
   3  10  10  10  10   1 8 
   5  10  10  10  10   1 10 
   5  10  10  10  10   1 10 
   6  10  10  10  10   1 11 
   6  10  10  10  10   1 12
   0   0   0   0   0   0 
